(declare-fun v () (Array Int (Array Int Real)))
(declare-fun va () (Array Int (Array Int Real)))
(push)
(assert (forall ((a (Array Int (Array Int Real)))) (and (= (select va 1) (select va 0)) (forall ((V Int)) (and (distinct va v) (= va (store va 0 (store (select a 0) 0 0))))))))
(check-sat)
